c Reduced graph for GEOM30b_1 generated by Cyril Grelier
p edge 25 68
e 1 2
e 1 4
e 1 5
e 1 9
e 1 10
e 1 11
e 1 13
e 1 14
e 1 16
e 1 17
e 2 4
e 2 5
e 2 13
e 2 14
e 2 16
e 2 17
e 3 8
e 3 9
e 3 11
e 3 12
e 3 15
e 3 19
e 3 23
e 4 5
e 4 7
e 4 9
e 4 11
e 4 13
e 5 7
e 5 13
e 5 25
e 6 7
e 6 12
e 6 18
e 6 19
e 6 21
e 6 22
e 7 21
e 7 22
e 7 25
e 8 9
e 8 10
e 8 11
e 8 23
e 8 24
e 9 10
e 9 11
e 10 11
e 10 20
e 10 24
e 12 15
e 12 18
e 12 19
e 12 23
e 13 14
e 14 16
e 14 17
e 15 18
e 15 19
e 15 23
e 16 17
e 16 20
e 17 20
e 18 19
e 18 21
e 20 24
e 21 22
e 22 25
